c Sudoku solution
p cnf 729 0
196 0
229 0
236 0
264 0
278 0
282 0
323 0
458 0
466 0
511 0
527 0
532 0
569 0
633 0
647 0
744 0
757 0
815 0
217 0
859 0
892 0
926 0
846 0
616 0
628 0
356 0
931 0
722 0
824 0
837 0
121 0
425 0
942 0
472 0
975 0
765 0
861 0
953 0
968 0
873 0
713 0
888 0
738 0
919 0
414 0
439 0
163 0
367 0
152 0
118 0
312 0
293 0
348 0
149 0
662 0
177 0
598 0
997 0
984 0
185 0
134 0
335 0
695 0
487 0
583 0
576 0
674 0
491 0
689 0
443 0
651 0
545 0
554 0
241 0
255 0
394 0
786 0
381 0
379 0
771 0
799 0
